(declare-fun temp6391_1 () (_ BitVec 64))
(declare-fun var461682 () (_ BitVec 64))
(declare-fun var461681 () (_ BitVec 64))
(declare-fun var134653 () (_ BitVec 64))
(declare-fun var528535 () (_ BitVec 64))
(declare-fun var594392 () (_ BitVec 64))
(declare-fun temp6391_2 () (_ BitVec 64))
(declare-fun var2559573 () (_ BitVec 64))
(declare-fun var2559578 () (_ BitVec 64))
(declare-fun temp6391_3 () (_ BitVec 64))
(declare-fun var2887253 () (_ BitVec 64))
(declare-fun var2887258 () (_ BitVec 64))
(declare-fun temp6391_5 () (_ BitVec 64))
(declare-fun temp6391_4 () (_ BitVec 64))
(declare-fun temp6391_7 () (_ BitVec 64))
(declare-fun temp6391_6 () (_ BitVec 64))
(declare-fun temp6391_9 () (_ BitVec 64))
(declare-fun temp6391_8 () (_ BitVec 64))
(declare-fun temp6391_11 () (_ BitVec 64))
(declare-fun temp6391_10 () (_ BitVec 64))
(declare-fun temp6391_13 () (_ BitVec 64))
(declare-fun temp6391_12 () (_ BitVec 64))
(declare-fun temp6391_15 () (_ BitVec 64))
(declare-fun temp6391_14 () (_ BitVec 64))
(declare-fun temp6391_17 () (_ BitVec 64))
(declare-fun temp6391_16 () (_ BitVec 64))
(declare-fun temp6391_19 () (_ BitVec 64))
(declare-fun temp6391_18 () (_ BitVec 64))
(declare-fun temp6391_21 () (_ BitVec 64))
(declare-fun temp6391_20 () (_ BitVec 64))
(declare-fun temp6391_23 () (_ BitVec 64))
(declare-fun temp6391_22 () (_ BitVec 64))
(declare-fun temp6391_25 () (_ BitVec 64))
(declare-fun temp6391_24 () (_ BitVec 64))
(declare-fun temp6391_27 () (_ BitVec 64))
(declare-fun temp6391_26 () (_ BitVec 64))
(declare-fun temp6391_29 () (_ BitVec 64))
(declare-fun temp6391_28 () (_ BitVec 64))
(declare-fun temp6391_31 () (_ BitVec 64))
(declare-fun temp6391_30 () (_ BitVec 64))
(declare-fun temp6391_33 () (_ BitVec 64))
(declare-fun temp6391_32 () (_ BitVec 64))
(declare-fun temp6391_35 () (_ BitVec 64))
(declare-fun temp6391_34 () (_ BitVec 64))
(declare-fun temp6391_37 () (_ BitVec 64))
(declare-fun temp6391_36 () (_ BitVec 64))
(declare-fun temp6391_39 () (_ BitVec 64))
(declare-fun temp6391_38 () (_ BitVec 64))
(declare-fun temp6391_41 () (_ BitVec 64))
(declare-fun temp6391_40 () (_ BitVec 64))
(declare-fun temp6391_43 () (_ BitVec 64))
(declare-fun temp6391_42 () (_ BitVec 64))
(declare-fun temp6391_45 () (_ BitVec 64))
(declare-fun temp6391_44 () (_ BitVec 64))
(declare-fun temp6391_47 () (_ BitVec 64))
(declare-fun temp6391_46 () (_ BitVec 64))
(declare-fun temp6391_49 () (_ BitVec 64))
(declare-fun temp6391_48 () (_ BitVec 64))
(declare-fun temp6391_51 () (_ BitVec 64))
(declare-fun temp6391_50 () (_ BitVec 64))
(declare-fun temp6391_53 () (_ BitVec 64))
(declare-fun temp6391_52 () (_ BitVec 64))
(declare-fun temp6391_55 () (_ BitVec 64))
(declare-fun temp6391_54 () (_ BitVec 64))
(declare-fun temp6391_57 () (_ BitVec 64))
(declare-fun temp6391_56 () (_ BitVec 64))
(declare-fun temp6391_58 () (_ BitVec 64))
(declare-fun var4001365 () (_ BitVec 64))
(declare-fun var4001370 () (_ BitVec 64))
(assert (= temp6391_1 #x0000000000000007))
(assert (= var461682 temp6391_1))
(assert (= var461681 var461682))
(assert (= var134653 var461681))
(assert (= var528535 var134653))
(assert (= var594392 var528535))
(assert (= temp6391_2 #x0000000000000000))
(assert (= var2559573 temp6391_2))
(assert (= var2559578 var2559573))
(assert (= temp6391_3 #x0000000000000000))
(assert (= var2887253 temp6391_3))
(assert (= var2887258 var2887253))
(assert (= temp6391_5 #x0000000000000000))
(assert (= temp6391_4 temp6391_5))
(assert (= temp6391_7 #x0000000000000000))
(assert (= temp6391_6 temp6391_7))
(assert (= temp6391_9 #x0000000000000000))
(assert (= temp6391_8 temp6391_9))
(assert (= temp6391_11 #x0000000000000000))
(assert (= temp6391_10 temp6391_11))
(assert (= temp6391_13 #x0000000000000000))
(assert (= temp6391_12 temp6391_13))
(assert (= temp6391_15 #x0000000000000000))
(assert (= temp6391_14 temp6391_15))
(assert (= temp6391_17 #x0000000000000000))
(assert (= temp6391_16 temp6391_17))
(assert (= temp6391_19 #x0000000000000000))
(assert (= temp6391_18 temp6391_19))
(assert (= temp6391_21 #x0000000000000000))
(assert (= temp6391_20 temp6391_21))
(assert (= temp6391_23 #x0000000000000000))
(assert (= temp6391_22 temp6391_23))
(assert (= temp6391_25 #x0000000000000000))
(assert (= temp6391_24 temp6391_25))
(assert (= temp6391_27 #x0000000000000000))
(assert (= temp6391_26 temp6391_27))
(assert (= temp6391_29 #x0000000000000000))
(assert (= temp6391_28 temp6391_29))
(assert (= temp6391_31 #x0000000000000000))
(assert (= temp6391_30 temp6391_31))
(assert (= temp6391_33 #x0000000000000000))
(assert (= temp6391_32 temp6391_33))
(assert (= temp6391_35 #x0000000000000000))
(assert (= temp6391_34 temp6391_35))
(assert (= temp6391_37 #x0000000000000000))
(assert (= temp6391_36 temp6391_37))
(assert (= temp6391_39 #x0000000000000000))
(assert (= temp6391_38 temp6391_39))
(assert (= temp6391_41 #x0000000000000000))
(assert (= temp6391_40 temp6391_41))
(assert (= temp6391_43 #x0000000000000000))
(assert (= temp6391_42 temp6391_43))
(assert (= temp6391_45 #x0000000000000000))
(assert (= temp6391_44 temp6391_45))
(assert (= temp6391_47 #x0000000000000000))
(assert (= temp6391_46 temp6391_47))
(assert (= temp6391_49 #x0000000000000000))
(assert (= temp6391_48 temp6391_49))
(assert (= temp6391_51 #x0000000000000000))
(assert (= temp6391_50 temp6391_51))
(assert (= temp6391_53 #x0000000000000000))
(assert (= temp6391_52 temp6391_53))
(assert (= temp6391_55 #x0000000000000000))
(assert (= temp6391_54 temp6391_55))
(assert (= temp6391_57 #x0000000000000000))
(assert (= temp6391_56 temp6391_57))
(assert (= temp6391_58 #x0000000000000000))
(assert (= var4001365 temp6391_58))
(assert (= var4001370 var4001365))
(model-add temp6391_1 () (_ BitVec 64) #x0000000000000007)
(model-add var461682 () (_ BitVec 64) #x0000000000000007)
(model-add var461681 () (_ BitVec 64) #x0000000000000007)
(model-add var134653 () (_ BitVec 64) #x0000000000000007)
(model-add var528535 () (_ BitVec 64) #x0000000000000007)
(model-add var594392 () (_ BitVec 64) #x0000000000000007)
(model-add temp6391_2 () (_ BitVec 64) #x0000000000000000)
(model-add var2559573 () (_ BitVec 64) #x0000000000000000)
(model-add var2559578 () (_ BitVec 64) #x0000000000000000)
(model-add temp6391_3 () (_ BitVec 64) #x0000000000000000)
(model-add var2887253 () (_ BitVec 64) #x0000000000000000)
(model-add var2887258 () (_ BitVec 64) #x0000000000000000)
(model-add temp6391_5 () (_ BitVec 64) #x0000000000000000)
(model-add temp6391_4 () (_ BitVec 64) #x0000000000000000)
(model-add temp6391_7 () (_ BitVec 64) #x0000000000000000)
(model-add temp6391_6 () (_ BitVec 64) #x0000000000000000)
(model-add temp6391_9 () (_ BitVec 64) #x0000000000000000)
(model-add temp6391_8 () (_ BitVec 64) #x0000000000000000)
(model-add temp6391_11 () (_ BitVec 64) #x0000000000000000)
(model-add temp6391_10 () (_ BitVec 64) #x0000000000000000)
(model-add temp6391_13 () (_ BitVec 64) #x0000000000000000)
(model-add temp6391_12 () (_ BitVec 64) #x0000000000000000)
(model-add temp6391_15 () (_ BitVec 64) #x0000000000000000)
(model-add temp6391_14 () (_ BitVec 64) #x0000000000000000)
(model-add temp6391_17 () (_ BitVec 64) #x0000000000000000)
(model-add temp6391_16 () (_ BitVec 64) #x0000000000000000)
(model-add temp6391_19 () (_ BitVec 64) #x0000000000000000)
(model-add temp6391_18 () (_ BitVec 64) #x0000000000000000)
(model-add temp6391_21 () (_ BitVec 64) #x0000000000000000)
(model-add temp6391_20 () (_ BitVec 64) #x0000000000000000)
(model-add temp6391_23 () (_ BitVec 64) #x0000000000000000)
(model-add temp6391_22 () (_ BitVec 64) #x0000000000000000)
(model-add temp6391_25 () (_ BitVec 64) #x0000000000000000)
(model-add temp6391_24 () (_ BitVec 64) #x0000000000000000)
(model-add temp6391_27 () (_ BitVec 64) #x0000000000000000)
(model-add temp6391_26 () (_ BitVec 64) #x0000000000000000)
(model-add temp6391_29 () (_ BitVec 64) #x0000000000000000)
(model-add temp6391_28 () (_ BitVec 64) #x0000000000000000)
(model-add temp6391_31 () (_ BitVec 64) #x0000000000000000)
(model-add temp6391_30 () (_ BitVec 64) #x0000000000000000)
(model-add temp6391_33 () (_ BitVec 64) #x0000000000000000)
(model-add temp6391_32 () (_ BitVec 64) #x0000000000000000)
(model-add temp6391_35 () (_ BitVec 64) #x0000000000000000)
(model-add temp6391_34 () (_ BitVec 64) #x0000000000000000)
(model-add temp6391_37 () (_ BitVec 64) #x0000000000000000)
(model-add temp6391_36 () (_ BitVec 64) #x0000000000000000)
(model-add temp6391_39 () (_ BitVec 64) #x0000000000000000)
(model-add temp6391_38 () (_ BitVec 64) #x0000000000000000)
(model-add temp6391_41 () (_ BitVec 64) #x0000000000000000)
(model-add temp6391_40 () (_ BitVec 64) #x0000000000000000)
(model-add temp6391_43 () (_ BitVec 64) #x0000000000000000)
(model-add temp6391_42 () (_ BitVec 64) #x0000000000000000)
(model-add temp6391_45 () (_ BitVec 64) #x0000000000000000)
(model-add temp6391_44 () (_ BitVec 64) #x0000000000000000)
(model-add temp6391_47 () (_ BitVec 64) #x0000000000000000)
(model-add temp6391_46 () (_ BitVec 64) #x0000000000000000)
(model-add temp6391_49 () (_ BitVec 64) #x0000000000000000)
(model-add temp6391_48 () (_ BitVec 64) #x0000000000000000)
(model-add temp6391_51 () (_ BitVec 64) #x0000000000000000)
(model-add temp6391_50 () (_ BitVec 64) #x0000000000000000)
(model-add temp6391_53 () (_ BitVec 64) #x0000000000000000)
(model-add temp6391_52 () (_ BitVec 64) #x0000000000000000)
(model-add temp6391_55 () (_ BitVec 64) #x0000000000000000)
(model-add temp6391_54 () (_ BitVec 64) #x0000000000000000)
(model-add temp6391_57 () (_ BitVec 64) #x0000000000000000)
(model-add temp6391_56 () (_ BitVec 64) #x0000000000000000)
(model-add temp6391_58 () (_ BitVec 64) #x0000000000000000)
(model-add var4001365 () (_ BitVec 64) #x0000000000000000)
(model-add var4001370 () (_ BitVec 64) #x0000000000000000)








